SECTION Graph
Nodes 435
Edges 818
E 1 396 47
E 3 8 3
E 3 101 4
E 3 388 1
E 3 397 9
E 4 101 1
E 4 393 3
E 4 395 1
E 4 399 9
E 5 388 9
E 5 396 1
E 5 397 1
E 6 395 9
E 6 399 1
E 7 9 1
E 7 380 4
E 7 385 12
E 8 385 1
E 8 386 1
E 8 391 4
E 9 10 12
E 9 11 1
E 10 12 1
E 10 385 1
E 10 386 1
E 11 12 12
E 12 384 1
E 13 18 7
E 13 377 1
E 13 378 1
E 13 379 6
E 14 379 5
E 14 382 1
E 15 377 6
E 15 379 1
E 15 382 5
E 16 378 6
E 16 379 1
E 17 22 25
E 17 372 1
E 17 373 1
E 17 374 5
E 18 374 6
E 18 375 1
E 18 376 1
E 19 372 5
E 19 374 1
E 19 375 6
E 20 373 5
E 20 374 1
E 20 376 6
E 21 354 7
E 21 356 1
E 21 358 1
E 21 359 2
E 22 362 6
E 22 364 1
E 22 367 1
E 23 356 5
E 23 362 1
E 23 364 6
E 24 360 3
E 24 362 1
E 24 367 6
E 25 348 6
E 25 353 1
E 25 357 6
E 26 357 5
E 26 361 1
E 26 363 1
E 26 366 7
E 27 351 10
E 27 353 6
E 27 357 1
E 27 361 5
E 28 350 12
E 28 357 1
E 28 363 5
E 29 35 1
E 29 41 4
E 29 324 1
E 29 332 12
E 30 332 1
E 30 336 1
E 31 32 1
E 31 228 5
E 31 242 1
E 31 276 12
E 32 34 12
E 32 56 5
E 33 242 12
E 33 276 1
E 34 276 1
E 35 36 12
E 35 37 1
E 35 40 4
E 36 38 1
E 36 332 1
E 37 38 12
E 37 319 4
E 39 308 2
E 39 311 1
E 39 320 15
E 39 324 16
E 40 41 1
E 40 317 2
E 40 319 1
E 41 318 2
E 41 321 4
E 42 43 10
E 42 296 4
E 42 299 2
E 42 306 2
E 43 312 4
E 43 315 2
E 43 316 2
E 44 310 5
E 44 312 2
E 44 316 4
E 45 264 2
E 45 269 1
E 45 279 3
E 45 294 10
E 46 47 1
E 46 288 3
E 46 289 2
E 47 292 2
E 47 298 1
E 48 49 10
E 48 246 4
E 48 253 2
E 48 265 3
E 49 274 4
E 49 288 2
E 49 289 3
E 50 266 5
E 50 274 2
E 50 288 4
E 51 212 2
E 51 216 1
E 51 231 6
E 51 245 10
E 52 53 1
E 52 234 3
E 52 237 2
E 53 241 2
E 53 250 1
E 54 200 2
E 54 203 1
E 54 213 3
E 54 227 10
E 55 221 2
E 55 228 1
E 55 242 5
E 56 225 2
E 56 228 1
E 56 234 1
E 57 263 6
E 57 275 2
E 57 283 1
E 57 285 2
E 58 285 10
E 58 301 2
E 58 307 1
E 58 310 2
E 59 180 23
E 59 212 6
E 59 231 2
E 59 240 5
E 60 231 10
E 60 245 6
E 60 266 2
E 60 274 5
E 61 63 3
E 61 188 1
E 61 190 2
E 62 193 10
E 62 217 1
E 62 221 2
E 63 184 2
E 64 184 10
E 64 217 3
E 65 303 1
E 65 313 5
E 66 313 6
E 66 314 1
E 66 322 8
E 67 284 15
E 67 303 5
E 67 313 1
E 67 314 6
E 68 313 1
E 68 325 14
E 69 70 2
E 69 155 20
E 69 181 1
E 69 198 9
E 70 159 20
E 70 185 1
E 70 205 9
E 71 205 6
E 71 215 2
E 71 220 1
E 71 233 6
E 72 181 9
E 72 189 3
E 72 198 1
E 72 211 6
E 73 185 9
E 73 205 1
E 73 219 4
E 73 220 6
E 74 161 1
E 74 174 10
E 75 76 1
E 75 168 3
E 75 172 2
E 75 210 20
E 76 173 2
E 76 177 1
E 76 214 20
E 77 78 10
E 77 147 4
E 77 158 3
E 78 165 4
E 78 168 2
E 78 172 3
E 79 162 4
E 79 165 2
E 79 168 4
E 79 194 20
E 80 131 2
E 80 134 1
E 80 136 3
E 80 145 10
E 81 82 1
E 81 141 3
E 81 143 2
E 81 175 20
E 82 144 2
E 82 149 1
E 82 176 20
E 83 84 10
E 83 126 4
E 83 128 2
E 83 132 3
E 84 135 4
E 84 141 2
E 84 143 3
E 85 133 5
E 85 135 2
E 85 141 4
E 85 167 20
E 86 113 2
E 86 115 1
E 86 120 6
E 86 125 10
E 87 88 1
E 87 121 3
E 87 122 2
E 87 146 20
E 88 124 2
E 88 127 1
E 88 148 20
E 89 109 2
E 89 110 1
E 89 114 3
E 89 119 10
E 90 91 2
E 90 117 2
E 91 118 2
E 91 121 1
E 91 139 20
E 92 131 6
E 92 138 2
E 93 138 10
E 93 152 2
E 93 157 1
E 93 159 2
E 94 113 6
E 94 120 2
E 94 123 5
E 95 120 10
E 95 125 6
E 95 133 2
E 95 135 5
E 96 98 3
E 96 103 1
E 96 104 2
E 97 106 10
E 97 116 1
E 97 117 2
E 98 102 2
E 99 102 10
E 99 116 3
E 100 371 163
E 101 391 3
E 101 398 9
E 102 104 3
E 103 105 2
E 103 106 2
E 104 106 1
E 104 116 10
E 105 107 2
E 105 108 2
E 106 108 2
E 107 109 1
E 107 110 2
E 108 110 2
E 108 117 10
E 109 111 3
E 110 118 10
E 111 112 1
E 111 114 2
E 112 113 1
E 112 115 2
E 114 115 1
E 114 122 10
E 115 124 10
E 117 118 2
E 118 119 1
E 119 121 2
E 119 122 3
E 120 126 5
E 121 142 20
E 122 124 1
E 123 126 2
E 123 128 4
E 124 125 1
E 125 127 2
E 126 135 10
E 127 133 6
E 127 150 20
E 128 129 3
E 129 130 1
E 129 132 2
E 130 131 1
E 130 134 2
E 132 134 1
E 132 143 10
E 133 160 20
E 134 144 10
E 136 137 1
E 136 151 10
E 137 138 2
E 137 152 10
E 138 140 1
E 139 142 1
E 139 154 9
E 140 147 4
E 140 157 10
E 141 169 20
E 142 146 3
E 142 156 9
E 143 144 1
E 144 145 1
E 145 149 2
E 145 151 3
E 146 148 1
E 146 163 9
E 147 165 10
E 148 150 1
E 148 164 9
E 149 153 3
E 149 178 20
E 150 160 6
E 150 166 9
E 151 152 1
E 151 153 2
E 152 155 2
E 153 155 1
E 153 181 20
E 154 156 1
E 154 196 29
E 155 159 2
E 156 163 3
E 156 200 29
E 157 162 2
E 157 165 4
E 158 161 1
E 158 172 10
E 159 162 1
E 160 167 5
E 160 170 9
E 161 173 10
E 162 185 20
E 163 164 1
E 163 207 29
E 164 166 1
E 164 209 29
E 166 170 6
E 166 171 6
E 167 169 4
E 167 179 9
E 168 204 20
E 169 175 3
E 169 182 9
E 170 179 5
E 170 180 6
E 171 180 6
E 171 212 23
E 172 173 1
E 173 174 1
E 174 177 2
E 175 176 1
E 175 186 9
E 176 178 1
E 176 187 9
E 177 218 20
E 178 181 3
E 178 189 9
E 179 182 4
E 179 183 6
E 180 183 5
E 182 186 3
E 182 191 6
E 183 191 4
E 183 240 23
E 184 190 3
E 185 194 4
E 186 187 1
E 186 199 6
E 187 189 1
E 187 202 6
E 188 192 2
E 188 193 2
E 189 206 6
E 190 193 1
E 190 217 10
E 191 199 3
E 191 253 23
E 192 195 1
E 192 197 2
E 193 197 2
E 194 204 4
E 194 219 9
E 195 196 1
E 195 201 2
E 196 200 1
E 196 203 2
E 197 201 1
E 197 221 10
E 198 205 2
E 198 215 6
E 199 202 1
E 199 259 23
E 200 207 3
E 201 203 1
E 201 222 10
E 202 206 1
E 202 261 23
E 203 225 10
E 204 208 2
E 204 223 9
E 206 211 3
E 206 264 23
E 207 209 1
E 207 213 2
E 208 210 1
E 208 229 9
E 209 212 1
E 209 216 2
E 210 214 1
E 210 232 9
E 211 215 1
E 211 224 6
E 213 216 1
E 213 237 10
E 214 218 1
E 214 235 9
E 215 226 6
E 216 241 10
E 218 238 9
E 219 223 4
E 219 230 6
E 220 230 4
E 220 236 6
E 221 222 1
E 222 225 1
E 222 228 2
E 223 229 2
E 223 243 6
E 224 226 1
E 224 239 5
E 225 227 1
E 226 233 2
E 226 244 5
E 227 234 2
E 227 237 3
E 229 232 1
E 229 247 6
E 230 243 4
E 230 248 6
E 231 246 5
E 232 235 1
E 232 251 6
E 233 236 1
E 233 249 5
E 235 238 1
E 235 254 6
E 236 248 4
E 236 252 5
E 237 241 1
E 238 255 6
E 239 244 1
E 239 256 6
E 240 246 2
E 240 253 4
E 241 245 1
E 243 247 2
E 243 257 6
E 244 249 2
E 244 258 6
E 245 250 2
E 246 274 10
E 247 251 1
E 247 262 6
E 248 257 4
E 248 260 5
E 249 252 1
E 249 263 6
E 250 266 6
E 251 254 1
E 251 267 6
E 252 260 4
E 252 268 6
E 253 259 3
E 254 255 1
E 254 270 6
E 255 271 6
E 256 258 1
E 256 273 6
E 257 262 2
E 257 272 5
E 258 263 2
E 258 275 6
E 259 261 1
E 259 265 2
E 260 272 4
E 260 278 6
E 261 264 1
E 261 269 2
E 262 267 1
E 262 277 5
E 263 268 1
E 264 273 3
E 265 269 1
E 265 289 10
E 267 270 1
E 267 280 5
E 268 278 4
E 268 283 6
E 269 292 10
E 270 271 1
E 270 282 5
E 271 284 5
E 271 303 15
E 272 277 2
E 272 286 6
E 273 275 1
E 273 279 2
E 275 281 2
E 277 280 1
E 277 290 6
E 278 286 4
E 278 291 6
E 279 281 1
E 279 300 10
E 280 282 1
E 280 293 6
E 281 285 2
E 281 301 10
E 282 284 1
E 282 295 6
E 283 287 2
E 283 291 4
E 284 297 6
E 285 287 1
E 286 290 2
E 286 299 6
E 287 296 4
E 287 307 10
E 289 292 1
E 290 293 1
E 290 302 6
E 291 296 2
E 291 299 4
E 292 294 1
E 293 295 1
E 293 304 6
E 294 298 2
E 294 300 3
E 295 297 1
E 295 305 6
E 296 312 10
E 297 308 6
E 297 314 15
E 298 310 6
E 299 302 2
E 300 301 1
E 302 304 1
E 302 306 2
E 304 305 1
E 304 309 2
E 305 308 1
E 305 311 2
E 306 309 1
E 306 315 10
E 307 312 4
E 309 311 1
E 309 317 10
E 311 318 10
E 314 320 8
E 315 317 1
E 315 319 2
E 316 319 2
E 317 318 1
E 318 328 16
E 320 322 1
E 320 328 10
E 321 323 1
E 321 326 4
E 322 325 1
E 322 329 10
E 323 327 4
E 323 331 11
E 324 326 3
E 324 334 12
E 325 330 10
E 326 327 1
E 326 340 19
E 327 337 11
E 327 341 19
E 328 329 1
E 328 331 2
E 329 330 1
E 329 333 2
E 330 335 2
E 331 333 1
E 331 337 4
E 332 334 1
E 333 335 1
E 333 338 4
E 334 336 1
E 334 343 15
E 335 339 4
E 336 340 9
E 336 345 15
E 337 338 1
E 337 343 12
E 338 339 1
E 338 344 12
E 339 347 12
E 340 341 1
E 340 346 6
E 341 342 1
E 341 349 6
E 342 351 6
E 342 353 10
E 343 344 1
E 343 345 1
E 344 347 1
E 344 348 1
E 345 348 1
E 345 353 6
E 346 349 1
E 346 352 5
E 347 350 1
E 348 350 1
E 349 351 1
E 349 354 5
E 351 355 5
E 352 354 1
E 352 356 7
E 354 355 1
E 355 358 7
E 355 361 10
E 358 360 2
E 358 365 10
E 359 360 1
E 359 362 3
E 360 369 10
E 361 365 7
E 363 368 7
E 364 372 25
E 365 366 1
E 365 369 2
E 366 368 1
E 366 370 2
E 367 373 25
E 368 371 2
E 369 370 1
E 370 371 1
E 375 377 7
E 376 378 7
E 380 381 1
E 380 389 12
E 381 383 1
E 381 390 12
E 382 383 12
E 383 392 12
E 384 386 1
E 384 387 3
E 385 389 4
E 386 388 3
E 387 388 1
E 387 396 9
E 389 390 1
E 389 391 1
E 390 392 1
E 390 393 1
E 391 393 1
E 392 394 1
E 393 394 1
E 394 395 3
E 397 398 4
E 398 399 1
E 1 400 100000
E 2 400 100000
E 3 401 100000
E 4 401 100000
E 5 401 100000
E 6 401 100000
E 7 402 100000
E 8 402 100000
E 9 403 100000
E 10 403 100000
E 11 404 100000
E 12 404 100000
E 13 405 100000
E 14 405 100000
E 15 405 100000
E 16 405 100000
E 17 406 100000
E 18 406 100000
E 19 406 100000
E 20 406 100000
E 21 407 100000
E 22 407 100000
E 23 407 100000
E 24 407 100000
E 25 408 100000
E 26 408 100000
E 27 408 100000
E 28 408 100000
E 29 409 100000
E 30 409 100000
E 31 410 100000
E 32 410 100000
E 33 410 100000
E 34 410 100000
E 35 411 100000
E 36 411 100000
E 37 412 100000
E 38 412 100000
E 39 413 100000
E 40 413 100000
E 41 413 100000
E 42 414 100000
E 43 414 100000
E 44 414 100000
E 45 415 100000
E 46 415 100000
E 47 415 100000
E 48 416 100000
E 49 416 100000
E 50 416 100000
E 51 417 100000
E 52 417 100000
E 53 417 100000
E 54 418 100000
E 55 418 100000
E 56 418 100000
E 57 419 100000
E 58 419 100000
E 59 420 100000
E 60 420 100000
E 61 421 100000
E 62 421 100000
E 63 422 100000
E 64 422 100000
E 65 423 100000
E 66 423 100000
E 67 423 100000
E 68 423 100000
E 69 424 100000
E 70 424 100000
E 71 424 100000
E 72 424 100000
E 73 424 100000
E 74 425 100000
E 75 425 100000
E 76 425 100000
E 77 426 100000
E 78 426 100000
E 79 426 100000
E 80 427 100000
E 81 427 100000
E 82 427 100000
E 83 428 100000
E 84 428 100000
E 85 428 100000
E 86 429 100000
E 87 429 100000
E 88 429 100000
E 89 430 100000
E 90 430 100000
E 91 430 100000
E 92 431 100000
E 93 431 100000
E 94 432 100000
E 95 432 100000
E 96 433 100000
E 97 433 100000
E 98 434 100000
E 99 434 100000
E 100 435 100000
E 101 401 100000
END

SECTION Terminals
Terminals 36
T 400
T 401
T 402
T 403
T 404
T 405
T 406
T 407
T 408
T 409
T 410
T 411
T 412
T 413
T 414
T 415
T 416
T 417
T 418
T 419
T 420
T 421
T 422
T 423
T 424
T 425
T 426
T 427
T 428
T 429
T 430
T 431
T 432
T 433
T 434
T 435
END

SECTION Tree Decomposition
c We do not guarantee that this tree decomposition has minimum width.
s td 365 19 435
b 1 2 400
b 2 435 100
b 3 400 1
b 4 100 371
b 5 1 396
b 6 404 11 12
b 7 403 9 10
b 8 412 38 37
b 9 411 36 35
b 10 432 94 95
b 11 371 368 370
b 12 433 96 97
b 13 396 387 5
b 14 434 99 98
b 15 402 8 7
b 16 409 30 29
b 17 419 57 58
b 18 420 60 59
b 19 421 61 62
b 20 431 92 93
b 21 422 63 64
b 22 11 9 12
b 23 38 36 37
b 24 416 48 49 50
b 25 428 83 84 85
b 26 368 370 366 363
b 27 92 131 93 138
b 28 370 366 363 369
b 29 387 388 5 384
b 30 427 80 82 81
b 31 99 102 98 116
b 32 102 98 116 104
b 33 98 116 104 96
b 34 116 104 96 97
b 35 104 96 97 106
b 36 96 97 106 103
b 37 417 53 51 52
b 38 97 106 103 117
b 39 106 103 108 117
b 40 103 108 105 117
b 41 413 41 39 40
b 42 414 43 42 44
b 43 429 87 88 86
b 44 425 74 76 75
b 45 426 77 78 79
b 46 108 105 110 117
b 47 105 107 110 117
b 48 430 90 89 91
b 49 30 332 29 336
b 50 107 110 117 109
b 51 34 410 276 32
b 52 9 12 10 7
b 53 36 37 35 332
b 54 37 35 332 319
b 55 90 117 89 91
b 56 415 46 47 45
b 57 12 10 384 7
b 58 63 184 64 61
b 59 184 64 190 61
b 60 64 217 190 61
b 61 217 190 61 62
b 62 190 61 62 193
b 63 61 62 193 188
b 64 62 193 188 221
b 65 193 188 197 221
b 66 188 192 197 221
b 67 192 197 195 221
b 68 197 195 201 221
b 69 195 201 221 196
b 70 410 276 33 32 31
b 71 33 32 31 242
b 72 32 31 242 56
b 73 31 242 228 56
b 74 242 228 55 56
b 75 228 222 55 56
b 76 342 351 353 341
b 77 364 372 22 23
b 78 367 373 22 24
b 79 359 362 21 360
b 80 347 350 344 339
b 81 377 15 13 375
b 82 378 16 13 376
b 83 346 349 352 340
b 84 399 6 4 398
b 85 395 6 4 394
b 86 392 390 394 383
b 87 397 5 3 398
b 88 418 55 56 54
b 89 111 109 114 112
b 90 113 112 86 94
b 91 356 23 21 352
b 92 128 123 83 129
b 93 130 131 129 134
b 94 136 137 151 80
b 95 139 154 142 91
b 96 140 147 138 157
b 97 161 158 173 74
b 98 171 180 166 212
b 99 174 173 74 177
b 100 382 14 15 383
b 101 380 381 7 389
b 102 208 210 229 204
b 103 224 239 211 226
b 104 218 177 214 238
b 105 234 56 227 52
b 106 250 266 245 53
b 107 255 238 254 271
b 108 256 239 258 273
b 109 65 303 423 313
b 110 68 423 313 325
b 111 288 46 49 50
b 112 298 310 47 294
b 113 300 301 279 294
b 114 307 287 58 312
b 115 308 39 297 305
b 116 316 43 319 44
b 117 321 323 326 41
b 118 330 335 325 329
b 119 110 117 118 89 109
b 120 117 118 89 109 91
b 121 118 89 109 119 91
b 122 89 109 114 119 91
b 123 109 114 119 112 91
b 124 35 332 29 40 319
b 125 381 390 7 389 383
b 126 10 385 384 386 7
b 127 6 4 401 398 394
b 128 201 221 222 203 196
b 129 221 222 55 203 196
b 130 366 363 369 365 26
b 131 16 405 379 13 376
b 132 363 369 365 26 28
b 133 369 365 26 360 28
b 134 14 405 379 15 383
b 135 303 423 313 67 271
b 136 405 379 15 13 376 383
b 137 15 13 375 376 383
b 138 13 375 376 18 383
b 139 375 376 18 19 383
b 140 376 18 19 20 383
b 141 18 374 406 19 20 383
b 142 374 406 19 20 17 383
b 143 19 20 17 372 383
b 144 20 17 372 373 383
b 145 17 372 373 22 383
b 146 372 373 22 23 383
b 147 373 22 24 23 383
b 148 22 407 24 362 23 383
b 149 407 24 362 23 21 383
b 150 24 362 23 21 383 360
b 151 23 21 383 360 352
b 152 388 5 3 384 386
b 153 158 173 74 172 77
b 154 154 156 142 91 196
b 155 147 165 77 138 157
b 156 350 344 348 28 339
b 157 137 151 152 80 138
b 158 335 325 329 333 339
b 159 266 245 53 60 50
b 160 301 279 294 58 281
b 161 123 126 83 94 129
b 162 323 327 326 41 331
b 163 385 8 384 386 7 389
b 164 173 74 76 172 177 77
b 165 74 76 172 177 77 75
b 166 76 172 177 77 75 214
b 167 172 177 77 78 75 214
b 168 177 77 78 75 214 238
b 169 4 401 398 101 393 394
b 170 222 55 203 225 56 196
b 171 55 203 225 56 54 196
b 172 225 56 227 54 196
b 173 56 227 54 52 196
b 174 227 54 237 52 196
b 175 5 3 401 398 384 386
b 176 165 77 78 79 138 157
b 177 310 47 294 58 44
b 178 365 26 361 358 360 28
b 179 390 7 389 393 394 383
b 180 114 119 122 115 112 91
b 181 119 121 122 115 112 91
b 182 423 313 67 66 325 271
b 183 54 237 213 52 196 200
b 184 237 213 52 241 196 200
b 185 67 66 314 284 325 271
b 186 66 314 284 322 325 271
b 187 332 29 334 336 40 319
b 188 245 53 60 51 241 50
b 189 53 60 51 52 241 50
b 190 21 383 358 360 352 354
b 191 3 401 398 101 8 384 386
b 192 251 247 232 254 267
b 193 291 283 278 296 299
b 194 235 214 238 232 254
b 195 345 353 348 343 336
b 196 408 25 27 26 28
b 197 355 361 358 351 354
b 198 233 236 71 226 249
b 199 357 25 27 26 28
b 200 25 27 26 353 348 28
b 201 27 26 361 351 353 348 28
b 202 26 361 358 360 351 353 348 28
b 203 361 358 360 351 354 353 348 28
b 204 253 240 191 48 259
b 205 292 289 47 294 269
b 206 223 229 204 219 243
b 207 285 287 57 58 281
b 208 324 326 29 334 39
b 209 304 305 309 302 293
b 210 338 344 337 333 339
b 211 391 101 8 389 393
b 212 252 260 236 249 268
b 213 295 297 305 293 282
b 214 120 126 86 94 95
b 215 124 122 115 88 125
b 216 127 88 125 133 150
b 217 132 83 129 134 143
b 218 270 254 267 271 282
b 219 135 126 84 85 95
b 220 141 84 85 169 81
b 221 144 145 82 134 143
b 222 209 216 207 164 212
b 223 146 87 142 148 163
b 224 149 145 153 82 178
b 225 311 39 318 305 309
b 226 205 70 198 73 71
b 227 155 152 153 69 159
b 228 160 167 170 133 150
b 229 162 79 157 159 185
b 230 328 329 320 331 318
b 231 168 78 75 204 79
b 232 175 169 186 81 176
b 233 179 182 167 170 183
b 234 286 290 272 278 299
b 235 181 153 178 69 72
b 236 265 289 269 48 259
b 237 187 189 186 176 202
b 238 194 204 79 185 219
b 239 199 191 186 202 259
b 240 206 189 202 264 211
b 241 261 269 202 259 264
b 242 257 248 243 262 272
b 243 215 198 71 211 226
b 244 220 230 236 73 71
b 245 231 60 51 59 246
b 246 263 258 57 249 268
b 247 277 280 290 262 272
b 248 244 239 258 226 249
b 249 239 258 273 211 226 249
b 250 274 60 246 49 50
b 251 275 258 57 273 281
b 252 317 40 318 309 315
b 253 306 309 315 302 42
b 254 349 351 352 354 340 341
b 255 151 152 80 145 153 138
b 256 156 142 91 163 196 200
b 257 43 315 319 42 44 312
b 258 279 294 45 58 273 281
b 259 327 341 337 326 41 331
b 260 401 398 101 8 384 386 393 394
b 261 101 8 384 386 389 393 394
b 262 8 384 386 7 389 393 394
b 263 358 360 351 352 354 353 348 28
b 264 351 352 354 353 340 348 28 341
b 265 353 340 348 28 343 341 336
b 266 340 348 28 343 341 326 336
b 267 131 93 80 129 134 138
b 268 180 166 170 183 59 212
b 269 46 289 47 45 49 50
b 270 314 284 322 325 320 297 271
b 271 284 322 325 320 297 271 282
b 272 322 325 329 320 297 271 282
b 273 121 122 115 112 87 142 91
b 274 344 348 28 343 337 333 339
b 275 213 52 241 216 207 196 200
b 276 166 170 183 59 150 164 212
b 277 122 115 112 87 142 91 88 125
b 278 115 112 87 142 91 88 125 86
b 279 112 87 142 91 88 125 86 94
b 280 348 28 343 341 337 326 336 333 339
b 281 343 341 337 326 334 336 333 339
b 282 341 337 326 41 334 336 331 333 339
b 283 326 41 29 334 336 331 333 339 39
b 284 210 75 214 232 229 204
b 285 287 283 57 58 281 296 312
b 286 230 236 248 73 71 219 243
b 287 280 293 290 262 267 272 282
b 288 325 329 320 333 339 297 271 282
b 289 87 142 91 88 125 148 163 86 94
b 290 329 320 331 333 339 318 297 271 282
b 291 320 331 333 339 39 318 297 271 282
b 292 41 29 334 336 331 333 339 39 40 318
b 293 29 334 336 331 333 339 39 40 318 319
b 294 331 333 339 39 40 318 297 319 271 282
b 295 39 40 318 297 305 309 319 271 282
b 296 40 318 297 305 309 315 319 271 282
b 297 297 305 309 315 319 293 271 282
b 298 305 309 315 319 302 293 271 282
b 299 309 315 319 302 42 293 271 282
b 300 315 319 302 42 293 44 271 282 312
b 301 424 70 73 71 69 72
b 302 70 198 73 71 69 72 159 185
b 303 182 167 170 183 191 169 186
b 304 258 57 273 281 211 226 249 268
b 305 60 51 52 241 59 246 49 50
b 306 77 78 75 214 238 79 138 157
b 307 78 75 214 238 204 79 138 157
b 308 75 214 238 232 229 204 79 138 157
b 309 214 238 232 229 254 204 79 138 157
b 310 238 232 229 254 204 79 138 157 271
b 311 198 73 71 69 72 211 226 159 185
b 312 51 52 241 216 59 212 246 49 50
b 313 302 42 293 290 44 271 282 299 312
b 314 42 293 290 44 271 282 296 299 312
b 315 240 183 191 59 246 48 259
b 316 260 236 248 249 268 272 278
b 317 247 232 229 254 243 262 267
b 318 126 83 84 85 86 94 95 129
b 319 83 84 85 86 94 95 129 134 143
b 320 93 152 80 129 134 138 157 159
b 321 142 91 88 125 148 163 196 200 86 94
b 322 84 85 86 94 95 169 129 81 134 143
b 323 88 125 148 163 196 200 133 150 86 94
b 324 125 148 163 196 200 133 150 86 94 95
b 325 148 163 196 200 133 150 164 86 94 95
b 326 163 207 196 200 133 150 164 86 94 95
b 327 189 186 176 178 202 264 72 211
b 328 289 47 294 45 269 48 49 50 259
b 329 47 294 45 269 48 49 50 259 58 44
b 330 167 170 183 191 133 150 85 169 186
b 331 152 80 145 153 129 134 69 138 157 159
b 332 80 145 153 82 129 81 134 69 138 157 159
b 333 294 45 269 48 49 50 259 58 273 281 44
b 334 45 269 48 49 50 259 264 58 273 281 44
b 335 269 48 49 50 202 259 264 58 273 281 44
b 336 145 153 82 129 81 134 143 178 69 138 157 159
b 337 153 82 129 81 134 143 178 69 72 138 157 159
b 338 82 129 81 134 143 176 178 69 72 138 157 159
b 339 283 57 58 281 268 278 296 299 312
b 340 232 229 254 204 79 138 157 243 262 267 271
b 341 229 254 204 79 138 157 219 243 262 267 271
b 342 254 204 79 138 157 219 243 262 267 271 282
b 343 204 79 138 157 185 219 243 262 267 271 282
b 344 79 138 157 159 185 219 243 262 267 271 282
b 345 170 183 191 59 133 150 164 212 85 169 186
b 346 293 290 44 262 267 271 272 282 296 299 312
b 347 290 44 262 267 271 272 278 282 296 299 312
b 348 52 241 216 207 196 200 59 212 246 49 50
b 349 216 207 196 200 59 164 212 246 49 50
b 350 57 58 273 281 211 226 249 268 278 296 299 312
b 351 236 248 73 71 226 249 268 219 243 272 278
b 352 248 73 71 226 249 268 219 243 262 272 278
b 353 183 191 59 133 150 164 212 246 85 169 186 48 259
b 354 191 59 133 150 164 212 246 85 169 186 48 202 259
b 355 207 196 200 59 133 150 164 212 246 86 94 95 49 50
b 356 59 133 150 164 212 246 85 86 94 95 169 186 48 49 50 202 259
b 357 85 86 94 95 169 186 129 81 134 143 48 49 50 202 259
b 358 169 186 129 81 134 143 176 48 49 50 202 259
b 359 186 129 81 134 143 176 178 48 49 50 202 259 264 72 211
b 360 73 71 69 72 211 226 249 268 159 185 219 243 262 272 278
b 361 129 81 134 143 176 178 48 49 50 202 259 264 69 72 211 138 157 159
b 362 48 49 50 202 259 264 58 273 281 69 72 211 44 138 157 159
b 363 58 273 281 69 72 211 226 249 268 44 138 157 159 278 296 299 312
b 364 69 72 211 226 249 268 44 138 157 159 185 219 243 262 272 278 296 299 312
b 365 44 138 157 159 185 219 243 262 267 271 272 278 282 296 299 312
1 3
3 5
5 13
13 29
29 152
152 175
175 191
191 260
260 261
261 262
262 163
260 169
163 126
169 127
262 179
179 125
261 211
126 57
175 87
127 84
127 85
179 86
125 101
57 52
163 15
52 22
52 7
22 6
125 148
148 149
149 150
148 147
150 151
147 146
151 190
146 145
190 263
263 203
203 202
202 201
263 264
202 178
201 200
264 254
264 265
265 266
266 280
280 281
281 282
282 283
283 292
292 293
293 294
294 291
291 290
294 295
295 296
290 288
296 297
297 298
298 299
299 300
300 313
313 314
314 346
346 347
347 365
365 364
364 363
364 360
363 350
365 344
363 362
362 361
361 359
361 338
359 358
338 337
358 357
337 336
357 356
356 354
354 353
356 355
344 343
362 335
360 352
336 332
353 345
343 342
335 334
352 351
342 341
334 333
341 340
357 322
355 326
355 349
332 331
333 329
326 325
349 348
325 324
324 323
360 311
350 339
345 330
340 310
322 319
329 328
348 312
323 321
310 309
321 289
309 308
350 304
359 327
331 320
311 302
319 318
312 305
289 279
308 307
279 278
307 306
278 277
340 317
353 315
345 276
351 286
351 316
348 275
339 285
330 303
288 272
277 273
272 271
271 270
280 274
346 287
282 259
333 258
293 187
331 255
328 269
321 256
308 284
304 249
320 267
302 301
305 189
306 168
306 176
276 268
275 184
273 181
270 186
189 188
168 167
184 183
300 257
181 180
186 185
167 166
166 165
165 164
347 234
277 215
203 197
145 144
344 229
178 133
200 199
287 247
200 196
358 232
337 235
265 195
336 221
336 224
354 239
343 238
335 241
352 242
342 218
283 208
351 198
341 206
322 220
349 222
331 227
329 177
323 216
311 243
339 193
330 228
290 230
319 217
328 205
328 236
309 194
289 223
295 225
304 246
304 251
327 237
327 240
302 226
318 214
318 219
318 161
305 245
305 250
296 252
307 231
288 158
317 192
315 204
286 244
316 212
285 207
303 233
297 213
259 162
258 160
274 156
187 124
274 210
298 209
255 157
256 154
249 248
299 253
176 155
188 159
183 174
174 173
173 172
172 171
171 170
170 129
129 128
185 182
182 135
180 123
123 122
122 121
121 120
120 119
144 143
143 142
142 141
141 140
164 153
140 139
139 138
138 137
137 136
136 131
136 134
133 132
132 130
157 94
154 95
155 96
158 118
159 106
173 105
171 88
170 75
156 80
128 69
182 110
135 109
123 89
120 55
162 117
119 50
160 113
153 97
137 81
124 54
164 99
131 82
134 100
130 28
75 74
69 68
55 48
54 53
50 47
28 26
74 73
165 44
68 67
47 46
73 72
67 66
46 40
72 71
66 65
40 39
71 70
65 64
39 38
70 51
64 63
38 36
63 62
36 35
62 61
35 34
61 60
34 33
60 59
33 32
59 58
32 31
362 24
264 76
254 83
332 30
292 41
147 78
310 107
319 25
295 115
289 43
150 79
279 90
306 45
285 114
187 49
269 56
269 111
284 102
249 103
249 108
267 27
267 93
189 37
168 104
151 91
268 98
257 42
257 116
146 77
177 112
161 92
27 20
49 16
207 17
53 9
53 23
23 8
34 12
31 14
58 21
62 19
357 10
26 11
245 18
11 4
4 2
END

EOF
